solution status: optimal solution found
objective value:                     204824.121648701
d11(0,0)                                            1 	(obj:0)
d11(1,1)                                            1 	(obj:0)
d11(2,5)                             1.00000000000001 	(obj:0)
d11(3,7)                                            1 	(obj:0)
d11(3,9)                                            1 	(obj:0)
d11(3,11)                                           1 	(obj:0)
d11(3,13)                                           1 	(obj:0)
d11(4,15)                                           1 	(obj:0)
d11(4,17)                                           1 	(obj:0)
d11(4,19)                                           1 	(obj:0)
d11(4,21)                                           1 	(obj:0)
d11(4,23)                                           1 	(obj:0)
d11(4,25)                                           1 	(obj:0)
d11(4,27)                                           1 	(obj:0)
d11(4,29)                                           1 	(obj:0)
d11(4,30)                                           1 	(obj:0)
d11(5,31)                                           1 	(obj:0)
d11(5,32)                                           1 	(obj:0)
d11(5,33)                                           1 	(obj:0)
d11(5,34)                                           1 	(obj:0)
d11(5,35)                                           1 	(obj:0)
d11(5,36)                                           1 	(obj:0)
d11(5,37)                                           1 	(obj:0)
d11(5,39)                                           1 	(obj:0)
d11(5,41)                                           1 	(obj:0)
d11(5,42)                                           1 	(obj:0)
d11(5,43)                                           1 	(obj:0)
d11(5,44)                                           1 	(obj:0)
d11(5,45)                                           1 	(obj:0)
d11(5,46)                            1.00000000000001 	(obj:0)
d11(5,47)                                           1 	(obj:0)
d11(5,49)                                           1 	(obj:0)
d11(5,50)                            1.00000000000001 	(obj:0)
d11(5,51)                                           1 	(obj:0)
d11(5,52)                                           1 	(obj:0)
d11(5,53)                                           1 	(obj:0)
d11(5,54)                            1.00000000000001 	(obj:0)
d11(5,55)                                           1 	(obj:0)
d11(5,56)                                           1 	(obj:0)
d11(5,57)                                           1 	(obj:0)
d11(5,59)                                           1 	(obj:0)
d11(5,60)                                           1 	(obj:0)
d11(5,61)                                           1 	(obj:0)
d11(5,62)                           0.999999999999993 	(obj:0)
d11(6,63)                                           1 	(obj:0)
d11(6,65)                                           1 	(obj:0)
d11(6,67)                                           1 	(obj:0)
d11(6,69)                                           1 	(obj:0)
d11(6,71)                                           1 	(obj:0)
d11(6,73)                                           1 	(obj:0)
d11(6,75)                                           1 	(obj:0)
d11(6,77)                                           1 	(obj:0)
d11(6,79)                                           1 	(obj:0)
d11(6,81)                                           1 	(obj:0)
d11(6,83)                                           1 	(obj:0)
d11(6,85)                                           1 	(obj:0)
d11(6,87)                                           1 	(obj:0)
d11(6,89)                                           1 	(obj:0)
d11(6,91)                                           1 	(obj:0)
d11(6,93)                                           1 	(obj:0)
d11(6,95)                                           1 	(obj:0)
d11(6,97)                                           1 	(obj:0)
d11(6,99)                                           1 	(obj:0)
d11(6,101)                                          1 	(obj:0)
d11(6,103)                                          1 	(obj:0)
d11(6,105)                                          1 	(obj:0)
d11(6,107)                                          1 	(obj:0)
d11(6,109)                                          1 	(obj:0)
d11(6,111)                                          1 	(obj:0)
d11(6,113)                                          1 	(obj:0)
d11(6,115)                                          1 	(obj:0)
d11(6,117)                                          1 	(obj:0)
d11(6,119)                                          1 	(obj:0)
d11(6,121)                                          1 	(obj:0)
d11(6,123)                                          1 	(obj:0)
d11(6,125)                                          1 	(obj:0)
d12(1,2)                                            1 	(obj:0)
d12(2,4)                                            1 	(obj:0)
d12(2,6)                                            1 	(obj:0)
d12(3,8)                                            1 	(obj:0)
d12(3,10)                                           1 	(obj:0)
d12(3,12)                                           1 	(obj:0)
d12(3,14)                                           1 	(obj:0)
d12(6,64)                                           1 	(obj:0)
d12(6,66)                                           1 	(obj:0)
d12(6,68)                                           1 	(obj:0)
d12(6,70)                                           1 	(obj:0)
d12(6,72)                                           1 	(obj:0)
d12(6,74)                                           1 	(obj:0)
d12(6,76)                                           1 	(obj:0)
d12(6,78)                                           1 	(obj:0)
d12(6,80)                                           1 	(obj:0)
d12(6,82)                                           1 	(obj:0)
d12(6,84)                                           1 	(obj:0)
d12(6,86)                                           1 	(obj:0)
d12(6,88)                                           1 	(obj:0)
d12(6,90)                                           1 	(obj:0)
d12(6,92)                                           1 	(obj:0)
d12(6,94)                                           1 	(obj:0)
d12(6,96)                                           1 	(obj:0)
d12(6,98)                                           1 	(obj:0)
d12(6,100)                                          1 	(obj:0)
d12(6,102)                                          1 	(obj:0)
d12(6,104)                                          1 	(obj:0)
d12(6,106)                                          1 	(obj:0)
d12(6,108)                                          1 	(obj:0)
d12(6,110)                                          1 	(obj:0)
d12(6,112)                                          1 	(obj:0)
d12(6,114)                                          1 	(obj:0)
d12(6,116)                                          1 	(obj:0)
d12(6,118)                                          1 	(obj:0)
d12(6,120)                                          1 	(obj:0)
d12(6,122)                                          1 	(obj:0)
d12(6,124)                                          1 	(obj:0)
d12(6,126)                                          1 	(obj:0)
d21(4,15)                                           1 	(obj:0)
d21(4,16)                                           1 	(obj:0)
d21(4,17)                                           1 	(obj:0)
d21(4,19)                                           1 	(obj:0)
d21(4,23)                                           1 	(obj:0)
d21(5,31)                                           1 	(obj:0)
d21(5,32)                                           1 	(obj:0)
d21(5,33)                                           1 	(obj:0)
d21(5,34)                                           1 	(obj:0)
d21(5,35)                                           1 	(obj:0)
d21(5,36)                                           1 	(obj:0)
d21(5,37)                                           1 	(obj:0)
d21(5,39)                                           1 	(obj:0)
d21(5,40)                                           1 	(obj:0)
d21(5,41)                                           1 	(obj:0)
d21(5,43)                                           1 	(obj:0)
d21(5,47)                                           1 	(obj:0)
d21(5,48)                                           1 	(obj:0)
d21(5,49)                                           1 	(obj:0)
d21(5,51)                                           1 	(obj:0)
d21(5,55)                                           1 	(obj:0)
d21(6,63)                                           1 	(obj:0)
d21(6,64)                                           1 	(obj:0)
d21(6,65)                                           1 	(obj:0)
d21(6,66)                                           1 	(obj:0)
d21(6,67)                                           1 	(obj:0)
d21(6,68)                                           1 	(obj:0)
d21(6,69)                                           1 	(obj:0)
d21(6,70)                                           1 	(obj:0)
d21(6,71)                                           1 	(obj:0)
d21(6,72)                                           1 	(obj:0)
d21(6,73)                                           1 	(obj:0)
d21(6,74)                                           1 	(obj:0)
d21(6,75)                                           1 	(obj:0)
d21(6,76)                                           1 	(obj:0)
d21(6,79)                                           1 	(obj:0)
d21(6,80)                                           1 	(obj:0)
d21(6,81)                                           1 	(obj:0)
d21(6,82)                                           1 	(obj:0)
d21(6,83)                                           1 	(obj:0)
d21(6,84)                                           1 	(obj:0)
d21(6,85)                                           1 	(obj:0)
d21(6,87)                                           1 	(obj:0)
d21(6,88)                                           1 	(obj:0)
d21(6,89)                                           1 	(obj:0)
d21(6,91)                                           1 	(obj:0)
d21(6,95)                                           1 	(obj:0)
d21(6,96)                                           1 	(obj:0)
d21(6,97)                                           1 	(obj:0)
d21(6,98)                                           1 	(obj:0)
d21(6,99)                                           1 	(obj:0)
d21(6,100)                                          1 	(obj:0)
d21(6,103)                                          1 	(obj:0)
d21(6,104)                                          1 	(obj:0)
d21(6,105)                                          1 	(obj:0)
d21(6,107)                                          1 	(obj:0)
d21(6,111)                                          1 	(obj:0)
d21(6,112)                                          1 	(obj:0)
d21(6,113)                                          1 	(obj:0)
d21(6,115)                                          1 	(obj:0)
d21(6,119)                                          1 	(obj:0)
y2(6,100)                            1289.94836177421 	(obj:0)
y2(6,102)                            1289.94836177421 	(obj:0)
y2(6,104)                            1289.94836177421 	(obj:0)
y2(6,106)                            1289.94836177421 	(obj:0)
y2(6,108)                            1289.94836177421 	(obj:0)
y2(6,110)                            1289.94836177421 	(obj:0)
y2(6,112)                            1289.94836177421 	(obj:0)
y2(6,114)                            1289.94836177421 	(obj:0)
y2(6,116)                            1289.94836177421 	(obj:0)
y2(6,118)                            1289.94836177421 	(obj:0)
y2(6,120)                            1289.94836177421 	(obj:0)
y2(6,122)                            1289.94836177421 	(obj:0)
y2(6,124)                             1289.9483617742 	(obj:0)
y2(6,126)                            1289.94836177421 	(obj:0)
STE(1,1)                             5086.84989642546 	(obj:0)
STE(0,0)                                         6300 	(obj:0)
STE(1,2)                              6481.1428559506 	(obj:0)
STE(2,3)                             4582.84989642546 	(obj:0)
STE(2,4)                             5899.06398230197 	(obj:0)
STE(2,5)                              5977.1428559506 	(obj:0)
STE(2,6)                              7293.3569418271 	(obj:0)
STE(3,7)                             3369.69979285092 	(obj:0)
STE(3,8)                             4763.99275237605 	(obj:0)
STE(3,9)                             4685.91387872742 	(obj:0)
STE(3,10)                            6080.20683825256 	(obj:0)
STE(3,11)                            4763.99275237605 	(obj:0)
STE(3,12)                            6158.28571190119 	(obj:0)
STE(3,13)                            6080.20683825256 	(obj:0)
STE(3,14)                            7474.49979777769 	(obj:0)
STE(4,15)                            1207.44989396207 	(obj:0)
STE(4,16)                            2865.69979285092 	(obj:0)
STE(4,17)                            2601.74285348721 	(obj:0)
STE(4,18)                            4259.99275237605 	(obj:0)
STE(4,19)                            2523.66397983858 	(obj:0)
STE(4,20)                            4181.91387872742 	(obj:0)
STE(4,21)                            3917.95693936371 	(obj:0)
STE(4,22)                            5576.20683825256 	(obj:0)
STE(4,23)                            2601.74285348721 	(obj:0)
STE(4,24)                            4259.99275237605 	(obj:0)
STE(4,25)                            3996.03581301234 	(obj:0)
STE(4,26)                            5654.28571190119 	(obj:0)
STE(4,27)                            3917.95693936371 	(obj:0)
STE(4,28)                            5576.20683825256 	(obj:0)
STE(4,29)                            5312.24989888885 	(obj:0)
STE(4,30)                            6970.49979777769 	(obj:0)
STE(5,31)                           -954.800004926774 	(obj:0)
STE(5,32)                            703.449893962071 	(obj:0)
STE(5,33)                             703.44989396207 	(obj:0)
STE(5,34)                            2361.69979285092 	(obj:0)
STE(5,35)                             439.49295459836 	(obj:0)
STE(5,36)                            2097.74285348715 	(obj:0)
STE(5,37)                            2097.74285348721 	(obj:0)
STE(5,38)                            3755.99275237605 	(obj:0)
STE(5,39)                            361.414080949732 	(obj:0)
STE(5,40)                            2019.66397983858 	(obj:0)
STE(5,41)                            2019.66397983855 	(obj:0)
STE(5,42)                            3677.91387872739 	(obj:0)
STE(5,43)                            1755.70704047487 	(obj:0)
STE(5,44)                            3413.95693936368 	(obj:0)
STE(5,45)                            3413.95693936371 	(obj:0)
STE(5,46)                            5072.20683825256 	(obj:0)
STE(5,47)                            439.492954598359 	(obj:0)
STE(5,48)                            2097.74285348721 	(obj:0)
STE(5,49)                             2097.7428534872 	(obj:0)
STE(5,50)                            3755.99275237605 	(obj:0)
STE(5,51)                            1833.78591412349 	(obj:0)
STE(5,52)                            3492.03581301231 	(obj:0)
STE(5,53)                            3492.03581301234 	(obj:0)
STE(5,54)                            5150.28571190119 	(obj:0)
STE(5,55)                            1755.70704047484 	(obj:0)
STE(5,56)                            3413.95693936368 	(obj:0)
STE(5,57)                            3413.95693936371 	(obj:0)
STE(5,58)                            5072.20683825256 	(obj:0)
STE(5,59)                                        3150 	(obj:0)
STE(5,60)                            4808.24989888882 	(obj:0)
STE(5,61)                            4808.24989888885 	(obj:0)
STE(5,62)                            6466.49979777769 	(obj:0)
STE(6,63)                           -1560.79275730282 	(obj:0)
STE(6,64)                           -233.349061241279 	(obj:0)
STE(6,65)                            97.4571415860203 	(obj:0)
STE(6,66)                            1424.90083764757 	(obj:0)
STE(6,67)                            97.4571415860196 	(obj:0)
STE(6,68)                            1424.90083764756 	(obj:0)
STE(6,69)                            1755.70704047487 	(obj:0)
STE(6,70)                            3083.15073653641 	(obj:0)
STE(6,71)                           -166.499797777691 	(obj:0)
STE(6,72)                            1160.94389828385 	(obj:0)
STE(6,73)                             1491.7501011111 	(obj:0)
STE(6,74)                            2819.19379717265 	(obj:0)
STE(6,75)                            1491.75010111115 	(obj:0)
STE(6,76)                             2819.1937971727 	(obj:0)
STE(6,77)                                        3150 	(obj:0)
STE(6,78)                            4477.44369606155 	(obj:0)
STE(6,79)                           -244.578671426319 	(obj:0)
STE(6,80)                            1082.86502463523 	(obj:0)
STE(6,81)                            1413.67122746253 	(obj:0)
STE(6,82)                            2741.11492352407 	(obj:0)
STE(6,83)                             1413.6712274625 	(obj:0)
STE(6,84)                            2741.11492352405 	(obj:0)
STE(6,85)                            3071.92112635134 	(obj:0)
STE(6,86)                            4399.36482241289 	(obj:0)
STE(6,87)                            1149.71428809882 	(obj:0)
STE(6,88)                            2477.15798416036 	(obj:0)
STE(6,89)                            2807.96418698763 	(obj:0)
STE(6,90)                            4135.40788304918 	(obj:0)
STE(6,91)                            2807.96418698766 	(obj:0)
STE(6,92)                            4135.40788304921 	(obj:0)
STE(6,93)                            4466.21408587651 	(obj:0)
STE(6,94)                            5793.65778193805 	(obj:0)
STE(6,95)                           -166.499797777691 	(obj:0)
STE(6,96)                            1160.94389828385 	(obj:0)
STE(6,97)                            1491.75010111115 	(obj:0)
STE(6,98)                             2819.1937971727 	(obj:0)
STE(6,99)                            1491.75010111115 	(obj:0)
STE(6,100)                            2819.1937971727 	(obj:0)
STE(6,101)                                       3150 	(obj:0)
STE(6,102)                           4477.44369606154 	(obj:0)
STE(6,103)                           1227.79316174744 	(obj:0)
STE(6,104)                           2555.23685780899 	(obj:0)
STE(6,105)                           2886.04306063626 	(obj:0)
STE(6,106)                           4213.48675669781 	(obj:0)
STE(6,107)                           2886.04306063629 	(obj:0)
STE(6,108)                           4213.48675669783 	(obj:0)
STE(6,109)                           4544.29295952513 	(obj:0)
STE(6,110)                           5871.73665558668 	(obj:0)
STE(6,111)                           1149.71428809879 	(obj:0)
STE(6,112)                           2477.15798416034 	(obj:0)
STE(6,113)                           2807.96418698763 	(obj:0)
STE(6,114)                           4135.40788304918 	(obj:0)
STE(6,115)                           2807.96418698766 	(obj:0)
STE(6,116)                           4135.40788304921 	(obj:0)
STE(6,117)                           4466.21408587651 	(obj:0)
STE(6,118)                           5793.65778193805 	(obj:0)
STE(6,119)                           2544.00724762395 	(obj:0)
STE(6,120)                            3871.4509436855 	(obj:0)
STE(6,121)                           4202.25714651277 	(obj:0)
STE(6,122)                           5529.70084257431 	(obj:0)
STE(6,123)                            4202.2571465128 	(obj:0)
STE(6,124)                           5529.70084257434 	(obj:0)
STE(6,125)                           5860.50704540164 	(obj:0)
STE(6,126)                           7187.95074146319 	(obj:0)
y1(6,99)                             91.7934771384456 	(obj:0)
y1(6,101)                            91.7934771384456 	(obj:0)
y1(6,103)                            91.7934771384456 	(obj:0)
y1(6,105)                            91.7934771384456 	(obj:0)
y1(6,107)                            91.7934771384456 	(obj:0)
y1(6,109)                            91.7934771384456 	(obj:0)
y1(6,111)                            91.7934771384456 	(obj:0)
y1(6,113)                            91.7934771384456 	(obj:0)
y1(6,115)                            91.7934771384456 	(obj:0)
y1(6,117)                            91.7934771384456 	(obj:0)
y1(6,119)                            91.7934771384456 	(obj:0)
y1(6,121)                            91.7934771384453 	(obj:0)
y1(6,123)                            91.7934771384456 	(obj:0)
y1(6,125)                            91.7934771384456 	(obj:0)
BG(5)                                723.522421037851 	(obj:10)
WB(1)                                3259.55177567504 	(obj:0)
AVE(1)                               3259.55177567504 	(obj:0)
WB(2)                                3259.55588804169 	(obj:0)
AVE(2)                               3259.55588804169 	(obj:0)
WB(3)                                3579.36165209166 	(obj:0)
AVE(3)                               3579.36165209166 	(obj:0)
WB(4)                              0.0732654787188949 	(obj:0)
AVE(4)                               3579.36576445831 	(obj:0)
AVE(5)                               3472.77007794174 	(obj:0)
WB(6)                                279.285142884674 	(obj:0)
AVE(6)                                3046.3618950668 	(obj:0)
WG(4)                                3579.29249897959 	(obj:10)
WG(5)                                3472.77007794174 	(obj:10)
WG(6)                                2767.07675218213 	(obj:10)
BG(1)                                3324.67023797665 	(obj:10)
BG(2)                                2673.40993877551 	(obj:10)
BG(3)                                3324.67023797666 	(obj:10)
BG(4)                                             617 	(obj:10)
y1(1,1)                              638.235093217082 	(obj:0)
y1(3,7)                              638.235093217093 	(obj:0)
y1(3,9)                              638.235093217093 	(obj:0)
y1(3,11)                             638.235093217093 	(obj:0)
y1(3,13)                             638.235093217093 	(obj:0)
y1(4,15)                             1492.42490899996 	(obj:0)
y1(4,17)                             1492.42490899996 	(obj:0)
y1(4,19)                             1492.42490899996 	(obj:0)
y1(4,21)                             1492.42490899996 	(obj:0)
y1(4,23)                             1492.42490899996 	(obj:0)
y1(4,25)                             1492.42490899996 	(obj:0)
y1(4,27)                             1492.42490899996 	(obj:0)
y1(4,29)                             1492.42490899996 	(obj:0)
y1(5,31)                             1492.42490899996 	(obj:0)
y1(5,33)                             1492.42490899996 	(obj:0)
y1(5,35)                             1492.42490899996 	(obj:0)
y1(5,37)                             1492.42490899996 	(obj:0)
y1(5,39)                             1492.42490899996 	(obj:0)
y1(5,41)                             1492.42490899998 	(obj:0)
y1(5,43)                             1492.42490899996 	(obj:0)
y1(5,45)                             1492.42490899996 	(obj:0)
y1(5,47)                             1492.42490899996 	(obj:0)
y1(5,49)                             1492.42490899996 	(obj:0)
y1(5,51)                             1492.42490899996 	(obj:0)
y1(5,53)                             1492.42490899996 	(obj:0)
y1(5,55)                             1492.42490899998 	(obj:0)
y1(5,57)                             1492.42490899996 	(obj:0)
y1(5,59)                             1492.42490899996 	(obj:0)
y1(5,61)                             1492.42490899996 	(obj:0)
y1(6,63)                             91.7934771384456 	(obj:0)
y1(6,65)                             91.7934771384456 	(obj:0)
y1(6,67)                             91.7934771384453 	(obj:0)
y1(6,69)                             91.7934771384456 	(obj:0)
y1(6,71)                             91.7934771384456 	(obj:0)
y1(6,73)                             91.7934771384456 	(obj:0)
y1(6,75)                             91.7934771384456 	(obj:0)
y1(6,77)                             91.7934771384456 	(obj:0)
y1(6,79)                             91.7934771384456 	(obj:0)
y1(6,81)                             91.7934771384456 	(obj:0)
y1(6,83)                             91.7934771384456 	(obj:0)
y1(6,85)                             91.7934771384456 	(obj:0)
y1(6,87)                             91.7934771384456 	(obj:0)
y1(6,89)                             91.7934771384456 	(obj:0)
y1(6,91)                             91.7934771384456 	(obj:0)
y1(6,93)                             91.7934771384456 	(obj:0)
y1(6,95)                             91.7934771384456 	(obj:0)
y1(6,97)                             91.7934771384456 	(obj:0)
y2(1,2)                              721.203006263788 	(obj:0)
y2(2,4)                              1385.48851144895 	(obj:0)
y2(2,6)                              1385.48851144895 	(obj:0)
y2(3,8)                              721.203006263776 	(obj:0)
y2(3,10)                             721.203006263776 	(obj:0)
y2(3,12)                             721.203006263775 	(obj:0)
y2(3,14)                             721.203006263776 	(obj:0)
y2(6,64)                             1289.94836177421 	(obj:0)
y2(6,66)                             1289.94836177421 	(obj:0)
y2(6,68)                             1289.94836177421 	(obj:0)
y2(6,70)                             1289.94836177421 	(obj:0)
y2(6,72)                             1289.94836177421 	(obj:0)
y2(6,74)                              1289.9483617742 	(obj:0)
y2(6,76)                             1289.94836177421 	(obj:0)
y2(6,78)                             1289.94836177421 	(obj:0)
y2(6,80)                             1289.94836177421 	(obj:0)
y2(6,82)                             1289.94836177421 	(obj:0)
y2(6,84)                             1289.94836177421 	(obj:0)
y2(6,86)                             1289.94836177421 	(obj:0)
y2(6,88)                              1289.9483617742 	(obj:0)
y2(6,90)                             1289.94836177421 	(obj:0)
y2(6,92)                             1289.94836177421 	(obj:0)
y2(6,94)                             1289.94836177421 	(obj:0)
y2(6,96)                              1289.9483617742 	(obj:0)
y2(6,98)                              1289.9483617742 	(obj:0)
